(set-logic QF_S)
(declare-fun var0 () String)
(declare-fun var1 () String)
(declare-fun var2 () String)
(declare-fun var3 () String)
(declare-fun var4 () String)
(declare-fun var5 () String)
(declare-fun var6 () String)
(declare-fun var7 () String)
(declare-fun var8 () String)
(declare-fun var9 () String)
(declare-fun var10 () String)
(declare-fun var11 () String)
(declare-fun var12 () String)
(declare-fun var13 () String)
(declare-fun var14 () String)
(declare-fun var15 () String)
(declare-fun var16 () String)
(declare-fun var17 () String)
(declare-fun var18 () String)
(declare-fun var19 () String)
(declare-fun var20 () String)
(declare-fun var21 () String)
(declare-fun var22 () String)
(declare-fun var23 () String)
(declare-fun var24 () String)
(declare-fun var25 () String)
(declare-fun var26 () String)
(declare-fun var27 () String)
(declare-fun var28 () String)
(declare-fun var29 () String)
(declare-fun var30 () String)
(declare-fun var31 () String)
(declare-fun var32 () String)
(declare-fun var33 () String)
(declare-fun var34 () String)
(declare-fun var35 () String)
(declare-fun var36 () String)
(declare-fun var37 () String)
(declare-fun var38 () String)
(declare-fun var39 () String)
(declare-fun var40 () String)
(declare-fun var41 () String)
(declare-fun var42 () String)
(declare-fun var43 () String)
(declare-fun var44 () String)
(declare-fun var45 () String)
(declare-fun var46 () String)
(declare-fun var47 () String)
(declare-fun var48 () String)
(declare-fun var49 () String)
(declare-fun var50 () String)
(declare-fun var51 () String)
(declare-fun var52 () String)
(declare-fun var53 () String)
(declare-fun var54 () String)
(declare-fun var55 () String)
(declare-fun var56 () String)
(declare-fun var57 () String)
(declare-fun var58 () String)
(declare-fun var59 () String)
(declare-fun var60 () String)
(assert (= var0 (Concat var1 var2)))
(assert (= var2 (Concat var3 var4)))
(assert (= var4 (Concat var5 var6)))
(assert (= var6 (Concat var7 var8)))
(assert (= var8 (Concat var9 var10)))
(assert (= var10 (Concat var11 var12)))
(assert (= var12 (Concat var13 var14)))
(assert (= var14 (Concat var15 var16)))
(assert (= var16 (Concat var17 var18)))
(assert (= var18 (Concat var19 var20)))
(assert (= var20 (Concat var21 var22)))
(assert (= var22 (Concat var23 var24)))
(assert (= var24 (Concat var25 var26)))
(assert (= var26 (Concat var27 var28)))
(assert (= var28 (Concat var29 var30)))
(assert (= var30 (Concat var31 var32)))
(assert (= var32 (Concat var33 var34)))
(assert (= var34 (Concat var35 var36)))
(assert (= var36 (Concat var37 var38)))
(assert (= var38 (Concat var39 var40)))
(assert (= var40 (Concat var41 var42)))
(assert (= var42 (Concat var43 var44)))
(assert (= var44 (Concat var45 var46)))
(assert (= var46 (Concat var47 var48)))
(assert (= var48 (Concat var49 var50)))
(assert (= var50 (Concat var51 var52)))
(assert (= var52 (Concat var53 var54)))
(assert (= var54 (Concat var55 var56)))
(assert (= var56 (Concat var57 var58)))
(assert (= var58 (Concat var59 var60)))
(assert (= var0 "solution"))
(assert (= "a" (CharAt var13 990)))
(assert (= "V" (CharAt var60 250)))
(assert (= "G" (CharAt var31 175)))
(assert (= "]" (CharAt var3 852)))
(assert (= "h" (CharAt var3 407)))
(assert (= "/" (CharAt var44 182)))
(assert (= "I" (CharAt var32 596)))
(assert (= "d" (CharAt var29 302)))
(assert (= "M" (CharAt var8 657)))
(assert (= "!" (CharAt var57 487)))
(assert (= "c" (CharAt var39 436)))
(assert (= "<" (CharAt var14 18)))
(assert (= "l" (CharAt var30 117)))
(assert (= "%" (CharAt var33 342)))
(assert (= "i" (CharAt var23 853)))
(assert (= "L" (CharAt var40 376)))
(assert (= "4" (CharAt var15 390)))
(assert (= "^" (CharAt var42 934)))
(assert (= "x" (CharAt var4 679)))
(assert (= "4" (CharAt var25 613)))
(assert (= "L" (CharAt var26 164)))
(assert (= "}" (CharAt var5 156)))
(assert (= "0" (CharAt var43 637)))
(assert (= "B" (CharAt var36 893)))
(assert (= ":" (CharAt var0 437)))
(assert (= "V" (CharAt var21 991)))
(assert (= "I" (CharAt var11 608)))
(assert (= "P" (CharAt var48 994)))
(assert (= "-" (CharAt var44 502)))
(assert (= "H" (CharAt var36 335)))
(assert (= "F" (CharAt var49 263)))
(assert (= "!" (CharAt var10 282)))
(assert (= "@" (CharAt var7 137)))
(assert (= "D" (CharAt var13 331)))
(assert (= "L" (CharAt var44 828)))
(assert (= "~" (CharAt var3 959)))
(assert (= "|" (CharAt var14 938)))
(assert (= "F" (CharAt var1 781)))
(assert (= "," (CharAt var19 663)))
(assert (= "7" (CharAt var46 646)))
(assert (= "Y" (CharAt var36 728)))
(assert (= "J" (CharAt var8 122)))
(assert (= "K" (CharAt var9 813)))
(assert (= "f" (CharAt var49 472)))
(assert (= "9" (CharAt var60 873)))
(assert (= "3" (CharAt var21 615)))
(assert (= "i" (CharAt var51 900)))
(assert (= "C" (CharAt var36 619)))
(assert (= "]" (CharAt var52 97)))
(assert (= "r" (CharAt var27 836)))
(assert (= "+" (CharAt var5 122)))
(assert (= "t" (CharAt var54 15)))
(assert (= "d" (CharAt var0 468)))
(assert (= "<" (CharAt var36 808)))
(assert (= "s" (CharAt var39 475)))
(assert (= "\\" (CharAt var31 754)))
(assert (= "f" (CharAt var48 886)))
(assert (= "e" (CharAt var50 806)))
(assert (= "2" (CharAt var34 830)))
(assert (= "u" (CharAt var40 414)))
(assert (= "L" (CharAt var20 567)))
(assert (= "\"" (CharAt var44 818)))
(assert (= "+" (CharAt var7 933)))
(assert (= "j" (CharAt var11 165)))
(assert (= "l" (CharAt var42 657)))
(assert (= "3" (CharAt var36 867)))
(assert (= "E" (CharAt var53 409)))
(assert (= "]" (CharAt var20 419)))
(assert (= "4" (CharAt var18 845)))
(assert (= "(" (CharAt var13 37)))
(assert (= "l" (CharAt var3 804)))
(assert (= "<" (CharAt var50 400)))
(assert (= "%" (CharAt var53 859)))
(assert (= "L" (CharAt var25 97)))
(assert (= "Y" (CharAt var50 226)))
(assert (= "L" (CharAt var38 146)))
(assert (= "g" (CharAt var36 901)))
(assert (= "9" (CharAt var14 914)))
(assert (= "^" (CharAt var43 659)))
(assert (= "!" (CharAt var3 37)))
(assert (= "%" (CharAt var2 96)))
(assert (= "<" (CharAt var27 728)))
(assert (= "u" (CharAt var18 391)))
(assert (= "J" (CharAt var1 109)))
(assert (= "0" (CharAt var45 85)))
(assert (= "p" (CharAt var56 438)))
(assert (= "{" (CharAt var21 728)))
(assert (= "g" (CharAt var28 672)))
(assert (= "B" (CharAt var27 967)))
(assert (= "Z" (CharAt var38 626)))
(assert (= "Y" (CharAt var8 231)))
(assert (= "U" (CharAt var43 845)))
(assert (= "w" (CharAt var21 622)))
(assert (= "c" (CharAt var25 516)))
(assert (= "l" (CharAt var20 171)))
(assert (= "_" (CharAt var47 273)))
(assert (= "c" (CharAt var41 361)))
(assert (= "X" (CharAt var35 891)))
(assert (= "h" (CharAt var7 17)))
(assert (= ";" (CharAt var29 700)))
(assert (= "1" (CharAt var56 322)))
(assert (= "S" (CharAt var22 343)))
(assert (= "#" (CharAt var37 761)))
(assert (= "+" (CharAt var55 587)))
(assert (= "s" (CharAt var56 530)))
(assert (= "." (CharAt var46 237)))
(assert (= "`" (CharAt var13 978)))
(assert (= "X" (CharAt var15 288)))
(assert (= "F" (CharAt var10 257)))
(assert (= "%" (CharAt var5 727)))
(assert (= "o" (CharAt var42 357)))
(assert (= "q" (CharAt var52 293)))
(assert (= "d" (CharAt var5 747)))
(assert (= "2" (CharAt var22 989)))
(assert (= "8" (CharAt var0 389)))
(assert (= "c" (CharAt var23 473)))
(assert (= "(" (CharAt var29 934)))
(assert (= "h" (CharAt var8 19)))
(assert (= "}" (CharAt var40 328)))
(assert (= "d" (CharAt var44 496)))
(assert (= "+" (CharAt var1 275)))
(assert (= "E" (CharAt var3 585)))
(assert (= ";" (CharAt var5 784)))
(assert (= "7" (CharAt var44 218)))
(assert (= "y" (CharAt var53 412)))
(assert (= "A" (CharAt var57 490)))
(assert (= "_" (CharAt var46 487)))
(assert (= "g" (CharAt var54 742)))
(assert (= ")" (CharAt var11 946)))
(assert (= "(" (CharAt var45 612)))
(assert (= "8" (CharAt var15 323)))
(assert (= "1" (CharAt var29 235)))
(assert (= "1" (CharAt var25 37)))
(assert (= "R" (CharAt var13 963)))
(assert (= "I" (CharAt var26 795)))
(assert (= "K" (CharAt var47 546)))
(assert (= "X" (CharAt var56 38)))
(assert (= "j" (CharAt var8 100)))
(assert (= "L" (CharAt var41 884)))
(assert (= "W" (CharAt var36 722)))
(assert (= "o" (CharAt var24 279)))
(assert (= "Y" (CharAt var6 764)))
(assert (= "L" (CharAt var59 223)))
(assert (= "?" (CharAt var14 688)))
(assert (= "r" (CharAt var42 656)))
(assert (= "_" (CharAt var54 450)))
(assert (= "," (CharAt var6 758)))
(assert (= "`" (CharAt var5 308)))
(assert (= "H" (CharAt var32 53)))
(assert (= "&" (CharAt var53 469)))
(assert (= "H" (CharAt var52 12)))
(assert (= "?" (CharAt var14 395)))
(assert (= "O" (CharAt var53 262)))
(assert (= "6" (CharAt var3 66)))
(assert (= "0" (CharAt var45 718)))
(assert (= "-" (CharAt var55 108)))
(assert (= "i" (CharAt var51 937)))
(assert (= "f" (CharAt var49 601)))
(assert (= "[" (CharAt var21 602)))
(assert (= "R" (CharAt var20 182)))
(assert (= "F" (CharAt var60 571)))
(assert (= "m" (CharAt var7 339)))
(assert (= "'" (CharAt var52 986)))
(assert (= "[" (CharAt var27 442)))
(assert (= "*" (CharAt var33 495)))
(assert (= "F" (CharAt var17 850)))
(assert (= "c" (CharAt var60 887)))
(assert (= ">" (CharAt var48 196)))
(assert (= "2" (CharAt var42 53)))
(assert (= "N" (CharAt var33 481)))
(assert (= "9" (CharAt var50 442)))
(assert (= "]" (CharAt var57 779)))
(assert (= "m" (CharAt var8 825)))
(assert (= "[" (CharAt var52 46)))
(assert (= "W" (CharAt var1 207)))
(assert (= "p" (CharAt var40 2)))
(assert (= "," (CharAt var30 360)))
(assert (= "^" (CharAt var22 849)))
(assert (= "u" (CharAt var38 950)))
(assert (= "d" (CharAt var21 720)))
(assert (= "." (CharAt var1 530)))
(assert (= "J" (CharAt var4 970)))
(assert (= "U" (CharAt var35 934)))
(assert (= "k" (CharAt var55 762)))
(assert (= ">" (CharAt var45 814)))
(assert (= "@" (CharAt var11 555)))
(assert (= "n" (CharAt var12 713)))
(assert (= "," (CharAt var42 543)))
(assert (= "N" (CharAt var58 135)))
(assert (= "V" (CharAt var44 873)))
(assert (= "T" (CharAt var47 269)))
(assert (= "z" (CharAt var12 277)))
(assert (= "?" (CharAt var38 585)))
(assert (= "T" (CharAt var21 897)))
(assert (= "n" (CharAt var21 221)))
(assert (= "`" (CharAt var19 68)))
(assert (= "M" (CharAt var53 236)))
(assert (= "B" (CharAt var23 444)))
(assert (= "z" (CharAt var26 419)))
(assert (= "y" (CharAt var58 605)))
(assert (= "&" (CharAt var3 801)))
(assert (= "Y" (CharAt var58 270)))
(assert (= "Z" (CharAt var8 932)))
(assert (= "n" (CharAt var42 499)))
(assert (= "7" (CharAt var21 449)))
(assert (= "S" (CharAt var10 363)))
(assert (= "X" (CharAt var0 565)))
(assert (= "U" (CharAt var21 214)))
(assert (= "7" (CharAt var19 338)))
(assert (= "7" (CharAt var20 999)))
(assert (= "P" (CharAt var60 531)))
(assert (= "G" (CharAt var20 422)))
(assert (= "W" (CharAt var37 41)))
(assert (= "r" (CharAt var2 780)))
(assert (= ":" (CharAt var45 539)))
(assert (= ")" (CharAt var2 696)))
(assert (= "J" (CharAt var5 70)))
(assert (= "!" (CharAt var52 20)))
(assert (= "=" (CharAt var23 650)))
(assert (= "L" (CharAt var35 125)))
(assert (= "n" (CharAt var37 717)))
(assert (= "-" (CharAt var9 641)))
(assert (= "Q" (CharAt var59 857)))
(assert (= "`" (CharAt var21 436)))
(assert (= "." (CharAt var52 24)))
(assert (= "s" (CharAt var32 700)))
(assert (= "`" (CharAt var57 794)))
(assert (= "A" (CharAt var51 380)))
(assert (= "\\" (CharAt var12 498)))
(assert (= "E" (CharAt var15 6)))
(assert (= "q" (CharAt var46 782)))
(assert (= "P" (CharAt var10 927)))
(assert (= "]" (CharAt var50 459)))
(assert (= ">" (CharAt var45 175)))
(assert (= ";" (CharAt var59 663)))
(assert (= "+" (CharAt var22 104)))
(assert (= "3" (CharAt var18 791)))
(assert (= "L" (CharAt var17 86)))
(assert (= "G" (CharAt var1 840)))
(assert (= "A" (CharAt var54 463)))
(assert (= "Y" (CharAt var8 708)))
(assert (= "W" (CharAt var47 945)))
(assert (= "B" (CharAt var8 541)))
(assert (= "S" (CharAt var8 568)))
(assert (= "q" (CharAt var56 257)))
(assert (= "(" (CharAt var9 596)))
(assert (= "1" (CharAt var11 859)))
(assert (= "e" (CharAt var13 571)))
(assert (= "h" (CharAt var50 294)))
(assert (= "0" (CharAt var31 815)))
(assert (= "\\" (CharAt var46 840)))
(assert (= "~" (CharAt var51 840)))
(assert (= "T" (CharAt var29 577)))
(assert (= "R" (CharAt var42 805)))
(assert (= "Y" (CharAt var36 997)))
(assert (= "g" (CharAt var44 749)))
(assert (= "J" (CharAt var3 432)))
(assert (= "*" (CharAt var41 776)))
(assert (= "g" (CharAt var56 64)))
(assert (= "]" (CharAt var39 943)))
(assert (= "U" (CharAt var6 117)))
(assert (= "k" (CharAt var16 803)))
(assert (= "Q" (CharAt var9 77)))
(assert (= "X" (CharAt var28 430)))
(assert (= "O" (CharAt var32 99)))
(assert (= "+" (CharAt var8 597)))
(assert (= "%" (CharAt var13 450)))
(assert (= "C" (CharAt var15 918)))
(assert (= "f" (CharAt var4 345)))
(assert (= "5" (CharAt var25 227)))
(assert (= "-" (CharAt var35 985)))
(assert (= "Z" (CharAt var39 347)))
(assert (= "<" (CharAt var26 120)))
(assert (= "T" (CharAt var53 48)))
(assert (= "'" (CharAt var0 841)))
(assert (= "\"" (CharAt var17 596)))
(assert (= "p" (CharAt var51 287)))
(assert (= "K" (CharAt var51 599)))
(assert (= "H" (CharAt var17 398)))
(assert (= "L" (CharAt var35 539)))
(assert (= "{" (CharAt var49 462)))
(assert (= "=" (CharAt var58 915)))
(assert (= "C" (CharAt var20 678)))
(assert (= "2" (CharAt var19 922)))
(assert (= "." (CharAt var50 807)))
(assert (= "e" (CharAt var29 574)))
(assert (= ">" (CharAt var5 263)))
(assert (= "~" (CharAt var1 13)))
(assert (= "]" (CharAt var37 742)))
(assert (= ";" (CharAt var30 914)))
(assert (= "a" (CharAt var39 835)))
(assert (= "f" (CharAt var34 887)))
(assert (= "?" (CharAt var42 904)))
(assert (= "u" (CharAt var5 718)))
(assert (= "g" (CharAt var27 721)))
(assert (= "R" (CharAt var42 897)))
(assert (= "2" (CharAt var2 829)))
(assert (= "\\" (CharAt var25 636)))
(assert (= "a" (CharAt var30 446)))
(assert (= "0" (CharAt var39 5)))
(assert (= "R" (CharAt var29 100)))
(assert (= "h" (CharAt var8 27)))
(assert (= "k" (CharAt var44 735)))
(assert (= "b" (CharAt var58 822)))
(assert (= "V" (CharAt var15 304)))
(assert (= "C" (CharAt var52 248)))
(assert (= "~" (CharAt var34 828)))
(assert (= "e" (CharAt var41 575)))
(assert (= "A" (CharAt var35 420)))
(assert (= "A" (CharAt var22 763)))
(assert (= "d" (CharAt var35 928)))
(assert (= ")" (CharAt var0 706)))
(assert (= "5" (CharAt var32 60)))
(assert (= "#" (CharAt var29 229)))
(assert (= "Y" (CharAt var36 560)))
(assert (= "r" (CharAt var59 570)))
(assert (= "P" (CharAt var18 151)))
(assert (= "O" (CharAt var11 890)))
(assert (= "&" (CharAt var48 516)))
(assert (= "c" (CharAt var3 64)))
(assert (= "t" (CharAt var30 821)))
(assert (= "l" (CharAt var46 857)))
(assert (= "e" (CharAt var8 903)))
(assert (= "*" (CharAt var57 930)))
(assert (= "W" (CharAt var37 631)))
(assert (= "." (CharAt var40 744)))
(assert (= "\\" (CharAt var30 268)))
(assert (= "k" (CharAt var55 739)))
(assert (= "n" (CharAt var29 365)))
(assert (= "5" (CharAt var21 715)))
(assert (= "8" (CharAt var12 161)))
(assert (= "/" (CharAt var45 443)))
(assert (= "," (CharAt var45 537)))
(assert (= "~" (CharAt var5 973)))
(assert (= "=" (CharAt var60 67)))
(assert (= "$" (CharAt var50 284)))
(assert (= "O" (CharAt var13 988)))
(assert (= "r" (CharAt var11 211)))
(assert (= "a" (CharAt var18 389)))
(assert (= "`" (CharAt var32 711)))
(assert (= "8" (CharAt var2 532)))
(assert (= "_" (CharAt var8 89)))
(assert (= "w" (CharAt var21 369)))
(assert (= "o" (CharAt var2 77)))
(assert (= "Y" (CharAt var41 200)))
(assert (= "J" (CharAt var43 294)))
(assert (= "e" (CharAt var49 151)))
(assert (= "@" (CharAt var30 551)))
(assert (= "&" (CharAt var10 539)))
(assert (= "I" (CharAt var39 354)))
(assert (= "o" (CharAt var25 592)))
(assert (= "S" (CharAt var53 13)))
(assert (= "p" (CharAt var22 344)))
(assert (= "g" (CharAt var2 729)))
(assert (= "z" (CharAt var56 617)))
(assert (= "q" (CharAt var22 991)))
(assert (= "+" (CharAt var59 349)))
(assert (= "F" (CharAt var18 247)))
(assert (= "7" (CharAt var44 955)))
(assert (= "W" (CharAt var54 838)))
(assert (= "V" (CharAt var3 220)))
(assert (= "R" (CharAt var39 969)))
(assert (= "H" (CharAt var26 538)))
(assert (= "o" (CharAt var53 29)))
(assert (= "F" (CharAt var49 746)))
(assert (= "V" (CharAt var29 418)))
(assert (= "i" (CharAt var31 922)))
(assert (= "w" (CharAt var56 231)))
(assert (= ">" (CharAt var35 32)))
(assert (= "i" (CharAt var40 252)))
(assert (= "L" (CharAt var22 761)))
(assert (= "`" (CharAt var3 187)))
(assert (= "," (CharAt var6 538)))
(assert (= "y" (CharAt var38 917)))
(assert (= "l" (CharAt var24 545)))
(assert (= "-" (CharAt var39 313)))
(assert (= "R" (CharAt var43 658)))
(assert (= "L" (CharAt var48 207)))
(assert (= "'" (CharAt var37 90)))
(assert (= "u" (CharAt var46 78)))
(assert (= "b" (CharAt var29 552)))
(assert (= "Z" (CharAt var31 464)))
(assert (= "o" (CharAt var54 4)))
(assert (= "k" (CharAt var40 733)))
(assert (= "+" (CharAt var22 44)))
(assert (= "3" (CharAt var33 121)))
(assert (= "z" (CharAt var23 829)))
(assert (= "$" (CharAt var42 485)))
(assert (= "z" (CharAt var59 900)))
(assert (= "~" (CharAt var56 376)))
(assert (= "\"" (CharAt var8 457)))
(assert (= "?" (CharAt var20 857)))
(assert (= "7" (CharAt var2 844)))
(assert (= "Q" (CharAt var13 868)))
(assert (= "8" (CharAt var43 429)))
(assert (= "J" (CharAt var10 488)))
(assert (= "m" (CharAt var19 758)))
(assert (= "I" (CharAt var21 556)))
(assert (= "D" (CharAt var31 594)))
(assert (= "s" (CharAt var14 383)))
(assert (= "l" (CharAt var14 321)))
(assert (= "l" (CharAt var39 820)))
(assert (= "o" (CharAt var58 450)))
(assert (= "S" (CharAt var3 387)))
(assert (= "}" (CharAt var29 867)))
(assert (= "P" (CharAt var43 359)))
(assert (= "{" (CharAt var47 370)))
(assert (= "d" (CharAt var32 395)))
(assert (= ";" (CharAt var12 342)))
(assert (= "Q" (CharAt var46 953)))
(assert (= "[" (CharAt var34 102)))
(assert (= "k" (CharAt var43 619)))
(assert (= "6" (CharAt var17 500)))
(assert (= "9" (CharAt var23 702)))
(assert (= ":" (CharAt var52 131)))
(assert (= "B" (CharAt var3 522)))
(assert (= "/" (CharAt var6 568)))
(assert (= "h" (CharAt var57 856)))
(assert (= "S" (CharAt var31 483)))
(assert (= "X" (CharAt var60 826)))
(assert (= "T" (CharAt var25 486)))
(assert (= "[" (CharAt var60 851)))
(assert (= "i" (CharAt var44 907)))
(assert (= "O" (CharAt var54 432)))
(assert (= "Q" (CharAt var20 840)))
(assert (= "e" (CharAt var47 767)))
(assert (= "S" (CharAt var44 808)))
(assert (= "\"" (CharAt var0 991)))
(assert (= "V" (CharAt var57 478)))
(assert (= "3" (CharAt var6 503)))
(assert (= "Y" (CharAt var5 456)))
(assert (= "M" (CharAt var55 545)))
(assert (= "s" (CharAt var44 446)))
(assert (= "c" (CharAt var2 958)))
(assert (= "J" (CharAt var17 515)))
(assert (= "D" (CharAt var12 806)))
(assert (= "V" (CharAt var19 925)))
(assert (= "W" (CharAt var14 510)))
(assert (= "A" (CharAt var34 417)))
(assert (= "`" (CharAt var22 401)))
(assert (= "P" (CharAt var3 424)))
(assert (= "r" (CharAt var38 913)))
(assert (= "^" (CharAt var21 362)))
(assert (= "Y" (CharAt var27 293)))
(assert (= "X" (CharAt var13 593)))
(assert (= "A" (CharAt var26 847)))
(assert (= "D" (CharAt var26 233)))
(assert (= "L" (CharAt var56 426)))
(assert (= "J" (CharAt var25 483)))
(assert (= "2" (CharAt var33 740)))
(assert (= ">" (CharAt var39 606)))
(assert (= "." (CharAt var55 199)))
(assert (= "k" (CharAt var59 472)))
(assert (= "C" (CharAt var43 487)))
(assert (= "1" (CharAt var42 74)))
(assert (= "S" (CharAt var50 877)))
(assert (= "c" (CharAt var20 4)))
(assert (= ")" (CharAt var26 16)))
(assert (= "~" (CharAt var48 957)))
(assert (= "+" (CharAt var33 97)))
(assert (= "W" (CharAt var27 34)))
(assert (= "C" (CharAt var3 397)))
(assert (= "i" (CharAt var4 132)))
(assert (= "\"" (CharAt var37 45)))
(assert (= "-" (CharAt var7 371)))
(assert (= "2" (CharAt var3 53)))
(assert (= "{" (CharAt var13 276)))
(assert (= "l" (CharAt var25 769)))
(assert (= "D" (CharAt var60 763)))
(assert (= "L" (CharAt var39 817)))
(assert (= ":" (CharAt var9 467)))
(assert (= "+" (CharAt var5 906)))
(assert (= "o" (CharAt var57 381)))
(assert (= "e" (CharAt var14 964)))
(assert (= "M" (CharAt var42 996)))
(assert (= "9" (CharAt var14 384)))
(assert (= "~" (CharAt var10 936)))
(assert (= "0" (CharAt var57 955)))
(assert (= "v" (CharAt var16 952)))
(assert (= "#" (CharAt var5 287)))
(assert (= "b" (CharAt var13 274)))
(assert (= "Z" (CharAt var57 594)))
(assert (= "G" (CharAt var56 498)))
(assert (= "S" (CharAt var6 673)))
(assert (= "f" (CharAt var24 599)))
(assert (= "8" (CharAt var55 406)))
(assert (= "3" (CharAt var4 105)))
(assert (= "-" (CharAt var42 645)))
(assert (= ":" (CharAt var53 71)))
(assert (= "i" (CharAt var54 911)))
(assert (= "J" (CharAt var12 867)))
(assert (= "m" (CharAt var38 856)))
(assert (= "j" (CharAt var45 382)))
(assert (= "\"" (CharAt var41 165)))
(assert (= "#" (CharAt var56 807)))
(assert (= "." (CharAt var25 192)))
(assert (= "4" (CharAt var19 200)))
(assert (= "X" (CharAt var45 183)))
(assert (= "n" (CharAt var15 661)))
(assert (= "d" (CharAt var47 275)))
(assert (= "_" (CharAt var21 542)))
(assert (= "y" (CharAt var25 439)))
(assert (= "Z" (CharAt var56 769)))
(assert (= "N" (CharAt var47 576)))
(assert (= "W" (CharAt var56 745)))
(assert (= "." (CharAt var39 263)))
(assert (= "2" (CharAt var3 357)))
(assert (= "H" (CharAt var21 984)))
(assert (= "4" (CharAt var16 918)))
(assert (= "n" (CharAt var46 415)))
(assert (= "\"" (CharAt var0 911)))
(assert (= "{" (CharAt var36 529)))
(assert (= "6" (CharAt var30 894)))
(assert (= "d" (CharAt var50 514)))
(assert (= ";" (CharAt var43 756)))
(assert (= "H" (CharAt var56 460)))
(assert (= "7" (CharAt var33 67)))
(assert (= "{" (CharAt var32 714)))
(assert (= "J" (CharAt var44 525)))
(assert (= "n" (CharAt var58 693)))
(assert (= "m" (CharAt var10 906)))
(assert (= "G" (CharAt var29 628)))
(assert (= "-" (CharAt var33 134)))
(assert (= "=" (CharAt var21 7)))
(assert (= "t" (CharAt var2 878)))
(assert (= "D" (CharAt var44 681)))
(assert (= ">" (CharAt var10 399)))
(assert (= "j" (CharAt var14 301)))
(assert (= "}" (CharAt var20 34)))
(assert (= "q" (CharAt var34 819)))
(assert (= "w" (CharAt var26 457)))
(assert (= "~" (CharAt var40 518)))
(assert (= "t" (CharAt var17 382)))
(assert (= "q" (CharAt var12 198)))
(assert (= "," (CharAt var10 396)))
(assert (= "1" (CharAt var51 526)))
(assert (= "T" (CharAt var18 546)))
(assert (= "q" (CharAt var7 189)))
(assert (= "M" (CharAt var3 994)))
(assert (= "@" (CharAt var56 505)))
(assert (= "V" (CharAt var21 737)))
(assert (= "y" (CharAt var44 439)))
(assert (= "9" (CharAt var45 282)))
(assert (= "o" (CharAt var40 128)))
(assert (= "9" (CharAt var38 674)))
(assert (= "W" (CharAt var37 322)))
(assert (= "V" (CharAt var16 621)))
(assert (= "Q" (CharAt var11 813)))
(assert (= "c" (CharAt var7 739)))
(assert (= "!" (CharAt var52 450)))
(assert (= "E" (CharAt var9 238)))
(assert (= "N" (CharAt var32 3)))
(assert (= "p" (CharAt var59 521)))
(assert (= "J" (CharAt var25 680)))
(assert (= "O" (CharAt var6 625)))
(assert (= "," (CharAt var14 818)))
(assert (= "d" (CharAt var8 363)))
(assert (= "(" (CharAt var52 544)))
(assert (= "1" (CharAt var48 981)))
(assert (= "=" (CharAt var39 144)))
(assert (= "2" (CharAt var37 892)))
(assert (= "*" (CharAt var51 750)))
(assert (= ";" (CharAt var41 866)))
(assert (= "*" (CharAt var22 679)))
(assert (= "L" (CharAt var51 218)))
(assert (= "Z" (CharAt var4 570)))
(assert (= "j" (CharAt var48 652)))
(assert (= "0" (CharAt var44 916)))
(assert (= "F" (CharAt var21 199)))
(assert (= "l" (CharAt var37 59)))
(assert (= "f" (CharAt var10 740)))
(assert (= "y" (CharAt var16 522)))
(assert (= "m" (CharAt var11 292)))
(assert (= "%" (CharAt var40 95)))
(assert (= "8" (CharAt var13 594)))
(assert (= "/" (CharAt var18 831)))
(assert (= "h" (CharAt var1 63)))
(assert (= "[" (CharAt var40 897)))
(assert (= "k" (CharAt var12 182)))
(assert (= "4" (CharAt var42 780)))
(assert (= "\\" (CharAt var8 542)))
(assert (= "a" (CharAt var34 203)))
(assert (= "q" (CharAt var5 656)))
(assert (= "C" (CharAt var13 471)))
(assert (= "u" (CharAt var21 659)))
(assert (= "x" (CharAt var7 828)))
(assert (= "m" (CharAt var13 285)))
(assert (= "v" (CharAt var15 715)))
(assert (= "<" (CharAt var13 784)))
(assert (= "f" (CharAt var52 86)))
(assert (= "(" (CharAt var50 345)))
(assert (= "X" (CharAt var36 726)))
(assert (= "z" (CharAt var23 148)))
(assert (= ":" (CharAt var27 31)))
(assert (= "Y" (CharAt var19 265)))
(assert (= "~" (CharAt var51 34)))
(assert (= "(" (CharAt var41 415)))
(assert (= "(" (CharAt var0 207)))
(assert (= "/" (CharAt var56 714)))
(assert (= "t" (CharAt var21 126)))
(assert (= "J" (CharAt var17 531)))
(assert (= "S" (CharAt var56 119)))
(assert (= "9" (CharAt var20 893)))
(assert (= "3" (CharAt var3 392)))
(assert (= "U" (CharAt var49 60)))
(assert (= "p" (CharAt var16 145)))
(assert (= "J" (CharAt var11 7)))
(assert (= "y" (CharAt var3 869)))
(assert (= "y" (CharAt var27 905)))
(assert (= "1" (CharAt var7 408)))
(assert (= "y" (CharAt var17 375)))
(assert (= "6" (CharAt var1 952)))
(assert (= "!" (CharAt var17 438)))
(assert (= "\\" (CharAt var20 891)))
(assert (= "i" (CharAt var31 911)))
(assert (= ";" (CharAt var25 468)))
(assert (= "C" (CharAt var10 385)))
(assert (= "\"" (CharAt var14 823)))
(assert (= "," (CharAt var0 170)))
(assert (= "B" (CharAt var24 569)))
(assert (= "N" (CharAt var31 639)))
(assert (= "K" (CharAt var55 261)))
(assert (= "c" (CharAt var37 182)))
(assert (= "M" (CharAt var5 815)))
(assert (= "e" (CharAt var40 790)))
(assert (= "<" (CharAt var23 901)))
(assert (= "f" (CharAt var14 834)))
(assert (= "@" (CharAt var6 92)))
(assert (= "A" (CharAt var7 951)))
(assert (= "(" (CharAt var11 81)))
(assert (= "D" (CharAt var30 745)))
(assert (= "m" (CharAt var3 713)))
(assert (= "0" (CharAt var5 740)))
(assert (= "S" (CharAt var14 199)))
(assert (= "Q" (CharAt var53 770)))
(assert (= "q" (CharAt var14 364)))
(assert (= "." (CharAt var2 605)))
(assert (= "0" (CharAt var19 935)))
(assert (= "." (CharAt var0 556)))
(assert (= "L" (CharAt var1 978)))
(assert (= "U" (CharAt var28 174)))
(assert (= "F" (CharAt var5 81)))
(assert (= ">" (CharAt var38 414)))
(assert (= "X" (CharAt var60 108)))
(assert (= "j" (CharAt var7 542)))
(assert (= "[" (CharAt var25 701)))
(assert (= "q" (CharAt var34 486)))
(assert (= "q" (CharAt var4 232)))
(assert (= "-" (CharAt var42 179)))
(assert (= "9" (CharAt var45 228)))
(assert (= "4" (CharAt var7 549)))
(assert (= "v" (CharAt var36 868)))
(assert (= "r" (CharAt var20 324)))
(assert (= "^" (CharAt var12 378)))
(assert (= "F" (CharAt var45 107)))
(assert (= ">" (CharAt var35 949)))
(assert (= "p" (CharAt var18 298)))
(assert (= "p" (CharAt var58 117)))
(assert (= "j" (CharAt var2 263)))
(assert (= "." (CharAt var27 663)))
(assert (= "r" (CharAt var1 580)))
(assert (= "4" (CharAt var36 1)))
(assert (= "F" (CharAt var2 202)))
(assert (= "E" (CharAt var31 221)))
(assert (= "c" (CharAt var51 666)))
(assert (= "`" (CharAt var52 939)))
(assert (= "l" (CharAt var49 354)))
(assert (= "@" (CharAt var12 694)))
(assert (= "|" (CharAt var14 374)))
(assert (= "I" (CharAt var28 606)))
(assert (= "e" (CharAt var14 37)))
(assert (= "`" (CharAt var48 64)))
(assert (= "B" (CharAt var30 814)))
(assert (= "j" (CharAt var3 857)))
(assert (= "^" (CharAt var11 463)))
(assert (= "y" (CharAt var41 711)))
(assert (= "=" (CharAt var46 218)))
(assert (= "3" (CharAt var1 858)))
(assert (= "G" (CharAt var50 491)))
(assert (= "^" (CharAt var6 387)))
(assert (= ";" (CharAt var60 914)))
(assert (= "S" (CharAt var0 482)))
(assert (= "u" (CharAt var14 38)))
(assert (= "`" (CharAt var19 884)))
(assert (= "f" (CharAt var27 547)))
(assert (= "." (CharAt var46 711)))
(assert (= "3" (CharAt var17 483)))
(assert (= ":" (CharAt var41 55)))
(assert (= "K" (CharAt var43 563)))
(assert (= "?" (CharAt var4 843)))
(assert (= "," (CharAt var43 577)))
(assert (= "m" (CharAt var42 431)))
(assert (= "6" (CharAt var42 205)))
(assert (= "r" (CharAt var54 577)))
(assert (= "N" (CharAt var34 555)))
(assert (= "n" (CharAt var40 687)))
(assert (= "u" (CharAt var12 751)))
(assert (= "V" (CharAt var40 366)))
(assert (= "X" (CharAt var23 395)))
(assert (= "U" (CharAt var11 408)))
(assert (= "v" (CharAt var28 416)))
(assert (= "m" (CharAt var15 680)))
(assert (= "H" (CharAt var40 30)))
(assert (= "b" (CharAt var14 8)))
(assert (= "$" (CharAt var20 225)))
(assert (= "|" (CharAt var48 159)))
(assert (= "n" (CharAt var23 257)))
(assert (= "%" (CharAt var18 270)))
(assert (= "Y" (CharAt var60 324)))
(assert (= "~" (CharAt var48 55)))
(assert (= "s" (CharAt var20 968)))
(assert (= "%" (CharAt var40 66)))
(assert (= "9" (CharAt var6 809)))
(assert (= ">" (CharAt var59 333)))
(assert (= "*" (CharAt var52 78)))
(assert (= "E" (CharAt var4 515)))
(assert (= "G" (CharAt var28 872)))
(assert (= "I" (CharAt var44 110)))
(assert (= "I" (CharAt var17 318)))
(assert (= "]" (CharAt var52 814)))
(assert (= "x" (CharAt var49 791)))
(assert (= "<" (CharAt var12 691)))
(assert (= "n" (CharAt var18 422)))
(assert (= "," (CharAt var5 630)))
(assert (= "G" (CharAt var19 499)))
(assert (= "\"" (CharAt var21 943)))
(assert (= "M" (CharAt var34 535)))
(assert (= "n" (CharAt var14 14)))
(assert (= "n" (CharAt var54 560)))
(assert (= "D" (CharAt var14 978)))
(assert (= "s" (CharAt var25 81)))
(assert (= "p" (CharAt var11 788)))
(assert (= "m" (CharAt var41 883)))
(assert (= "x" (CharAt var2 922)))
(assert (= "3" (CharAt var31 776)))
(assert (= "d" (CharAt var27 711)))
(assert (= "L" (CharAt var41 730)))
(assert (= "!" (CharAt var45 875)))
(assert (= "5" (CharAt var10 116)))
(assert (= "Z" (CharAt var49 468)))
(assert (= "r" (CharAt var40 847)))
(assert (= ")" (CharAt var50 783)))
(assert (= "+" (CharAt var48 239)))
(assert (= "M" (CharAt var36 286)))
(assert (= "M" (CharAt var56 796)))
(assert (= ">" (CharAt var59 996)))
(assert (= "o" (CharAt var42 913)))
(assert (= "0" (CharAt var51 93)))
(assert (= "c" (CharAt var46 445)))
(assert (= "{" (CharAt var15 255)))
(assert (= "z" (CharAt var4 364)))
(assert (= "-" (CharAt var60 937)))
(assert (= "v" (CharAt var12 167)))
(assert (= "x" (CharAt var4 139)))
(assert (= "(" (CharAt var9 631)))
(assert (= "z" (CharAt var33 255)))
(assert (= "L" (CharAt var50 844)))
(assert (= "b" (CharAt var5 622)))
(assert (= "E" (CharAt var32 210)))
(assert (= "O" (CharAt var13 232)))
(assert (= "r" (CharAt var15 772)))
(assert (= "h" (CharAt var31 554)))
(assert (= "f" (CharAt var5 309)))
(assert (= "~" (CharAt var2 641)))
(assert (= "L" (CharAt var2 790)))
(assert (= "U" (CharAt var57 783)))
(assert (= "P" (CharAt var22 36)))
(assert (= "(" (CharAt var9 560)))
(assert (= "$" (CharAt var41 63)))
(assert (= "'" (CharAt var56 62)))
(assert (= "O" (CharAt var14 745)))
(assert (= "y" (CharAt var25 110)))
(assert (= "d" (CharAt var3 214)))
(assert (= "X" (CharAt var19 610)))
(assert (= "x" (CharAt var45 596)))
(assert (= "n" (CharAt var57 337)))
(assert (= "@" (CharAt var24 65)))
(assert (= "n" (CharAt var3 798)))
(assert (= "c" (CharAt var16 903)))
(assert (= "Q" (CharAt var7 700)))
(assert (= "}" (CharAt var31 556)))
(assert (= "P" (CharAt var28 844)))
(assert (= "r" (CharAt var34 100)))
(assert (= "|" (CharAt var23 995)))
(assert (= "{" (CharAt var52 753)))
(assert (= "h" (CharAt var37 898)))
(assert (= ":" (CharAt var39 141)))
(assert (= "U" (CharAt var40 493)))
(assert (= "?" (CharAt var7 855)))
(assert (= "{" (CharAt var32 37)))
(assert (= "O" (CharAt var44 106)))
(assert (= "$" (CharAt var20 643)))
(assert (= "O" (CharAt var37 474)))
(assert (= "m" (CharAt var9 151)))
(assert (= "g" (CharAt var16 927)))
(assert (= "J" (CharAt var13 502)))
(assert (= "H" (CharAt var47 495)))
(assert (= "9" (CharAt var46 150)))
(assert (= "}" (CharAt var33 272)))
(assert (= "|" (CharAt var53 240)))
(assert (= "<" (CharAt var43 279)))
(assert (= "+" (CharAt var18 437)))
(assert (= "t" (CharAt var50 210)))
(assert (= "c" (CharAt var42 387)))
(assert (= "*" (CharAt var28 268)))
(assert (= "6" (CharAt var46 496)))
(assert (= "A" (CharAt var6 926)))
(assert (= "Y" (CharAt var60 56)))
(assert (= "*" (CharAt var54 438)))
(assert (= "y" (CharAt var7 821)))
(assert (= "g" (CharAt var32 10)))
(assert (= "u" (CharAt var3 744)))
(assert (= "g" (CharAt var27 668)))
(assert (= "3" (CharAt var58 401)))
(assert (= "a" (CharAt var24 13)))
(assert (= "A" (CharAt var41 265)))
(assert (= "s" (CharAt var1 418)))
(assert (= "T" (CharAt var60 560)))
(assert (= "m" (CharAt var27 403)))
(assert (= "R" (CharAt var39 82)))
(assert (= "Z" (CharAt var44 570)))
(assert (= "K" (CharAt var1 474)))
(assert (= "X" (CharAt var44 456)))
(assert (= "Y" (CharAt var37 473)))
(assert (= "f" (CharAt var40 746)))
(assert (= "`" (CharAt var16 798)))
(assert (= "X" (CharAt var38 165)))
(assert (= "g" (CharAt var14 28)))
(assert (= "0" (CharAt var12 659)))
(assert (= "N" (CharAt var6 142)))
(assert (= "Q" (CharAt var44 447)))
(assert (= "X" (CharAt var48 521)))
(assert (= "p" (CharAt var32 889)))
(assert (= "H" (CharAt var37 416)))
(assert (= "&" (CharAt var20 794)))
(assert (= "1" (CharAt var49 145)))
(assert (= "\"" (CharAt var6 740)))
(assert (= "b" (CharAt var45 686)))
(assert (= "F" (CharAt var16 415)))
(assert (= "y" (CharAt var49 294)))
(assert (= "_" (CharAt var28 996)))
(check-sat)